letting n =  10
letting blocks =  [[1, 2], [1, 3], [1, 6], [1, 7], [1, 9], [2, 5], [2, 10], [3, 1], [3, 2], [3, 5], [3, 6], [3, 9], [4, 1], [4, 3], [4, 5], [4, 8], [4, 9], [5, 1], [5, 2], [5, 4], [5, 5], [5, 7], [5, 8], [6, 1], [6, 2], [6, 4], [6, 7], [6, 8], [7, 4], [7, 8], [7, 9], [7, 10], [8, 4], [8, 9], [8, 10], [9, 3], [9, 5], [9, 7], [10, 2], [10, 5], [10, 7], [10, 9]]
